(set-info :smt-lib-version 2.6)
(set-logic UF)
(set-info :source |Benchmarks from the paper: "Extending Sledgehammer with SMT Solvers" by Jasmin Blanchette, Sascha Bohme, and Lawrence C. Paulson, CADE 2011.  Translated to SMT2 by Andrew Reynolds and Morgan Deters.|)
(set-info :category "industrial")
(set-info :status sat)
(declare-sort S1 0)
(declare-sort S2 0)
(declare-sort S3 0)
(declare-sort S4 0)
(declare-sort S5 0)
(declare-sort S6 0)
(declare-sort S7 0)
(declare-sort S8 0)
(declare-sort S9 0)
(declare-sort S10 0)
(declare-sort S11 0)
(declare-sort S12 0)
(declare-sort S13 0)
(declare-sort S14 0)
(declare-sort S15 0)
(declare-sort S16 0)
(declare-sort S17 0)
(declare-sort S18 0)
(declare-sort S19 0)
(declare-sort S20 0)
(declare-sort S21 0)
(declare-sort S22 0)
(declare-sort S23 0)
(declare-sort S24 0)
(declare-sort S25 0)
(declare-sort S26 0)
(declare-sort S27 0)
(declare-sort S28 0)
(declare-sort S29 0)
(declare-sort S30 0)
(declare-sort S31 0)
(declare-sort S32 0)
(declare-sort S33 0)
(declare-sort S34 0)
(declare-sort S35 0)
(declare-sort S36 0)
(declare-fun f1 () S1)
(declare-fun f2 () S1)
(declare-fun f3 (S3 S2) S4)
(declare-fun f4 () S3)
(declare-fun f5 (S5 S4) S4)
(declare-fun f6 (S6 S4) S5)
(declare-fun f7 () S6)
(declare-fun f8 () S3)
(declare-fun f9 (S7 S2) S2)
(declare-fun f10 (S8 S2) S7)
(declare-fun f11 () S8)
(declare-fun f12 () S8)
(declare-fun f13 (S9 S10) S2)
(declare-fun f14 () S9)
(declare-fun f15 (S11 S10) S10)
(declare-fun f16 () S11)
(declare-fun f17 () S11)
(declare-fun f18 () S10)
(declare-fun f19 () S2)
(declare-fun f20 (S12 S4) S3)
(declare-fun f21 () S12)
(declare-fun f22 () S3)
(declare-fun f23 () S2)
(declare-fun f24 () S2)
(declare-fun f25 () S3)
(declare-fun f26 () S3)
(declare-fun f27 () S8)
(declare-fun f28 () S3)
(declare-fun f29 () S3)
(declare-fun f30 () S7)
(declare-fun f31 () S3)
(declare-fun f32 () S3)
(declare-fun f33 (S13 S2) S3)
(declare-fun f34 (S14 S4) S13)
(declare-fun f35 (S15 S4) S14)
(declare-fun f36 () S15)
(declare-fun f37 () S6)
(declare-fun f38 () S6)
(declare-fun f39 () S6)
(declare-fun f40 (S16 S2) S10)
(declare-fun f41 (S17 S2) S16)
(declare-fun f42 (S18 S10) S17)
(declare-fun f43 (S19 S10) S18)
(declare-fun f44 () S19)
(declare-fun f45 (S20 S10) S11)
(declare-fun f46 () S20)
(declare-fun f47 () S20)
(declare-fun f48 (S21 S10) S16)
(declare-fun f49 () S21)
(declare-fun f50 () S20)
(declare-fun f51 () S15)
(declare-fun f52 (S22 S2) S8)
(declare-fun f53 (S23 S2) S22)
(declare-fun f54 () S23)
(declare-fun f55 () S8)
(declare-fun f56 () S19)
(declare-fun f57 () S15)
(declare-fun f58 () S19)
(declare-fun f59 () S15)
(declare-fun f60 () S23)
(declare-fun f61 () S19)
(declare-fun f62 () S15)
(declare-fun f63 () S23)
(declare-fun f64 () S19)
(declare-fun f65 (S24 S2) S12)
(declare-fun f66 (S25 S4) S24)
(declare-fun f67 () S25)
(declare-fun f68 (S26 S2) S21)
(declare-fun f69 (S27 S10) S26)
(declare-fun f70 () S27)
(declare-fun f71 (S28 S29) S4)
(declare-fun f72 (S30 S3) S28)
(declare-fun f73 () S30)
(declare-fun f74 (S2 S2) S29)
(declare-fun f75 () S2)
(declare-fun f76 () S4)
(declare-fun f77 (S2 S2) S1)
(declare-fun f78 (S2 S2) S1)
(declare-fun f79 (S31 S10) S4)
(declare-fun f80 () S31)
(declare-fun f81 () S11)
(declare-fun f82 (S32 S29) S10)
(declare-fun f83 (S33 S16) S32)
(declare-fun f84 () S33)
(declare-fun f85 (S34 S29) S2)
(declare-fun f86 (S35 S7) S34)
(declare-fun f87 () S35)
(declare-fun f88 (S29 S29) S29)
(declare-fun f89 (S10 S10) S1)
(declare-fun f90 (S36 S36) S36)
(declare-fun f91 (S10 S10) S36)
(declare-fun f92 (S29 S29) S1)
(declare-fun f93 (S36 S36) S1)
(declare-fun f94 (S10 S10) S1)
(declare-fun f95 () S10)
(assert (not (= f1 f2)))
(assert (forall ((?v0 S2)) (let ((?v_0 (f10 f12 (f13 f14 (f15 f16 (f15 f17 f18)))))) (let ((?v_1 (f9 (f10 f11 (f9 ?v_0 ?v0)) f19))) (= (f3 f4 ?v0) (f5 (f6 f7 (f3 f8 ?v_1)) (f3 (f20 f21 (f3 f22 (f9 ?v_0 f23))) (f9 (f10 f12 f24) ?v_1))))))))
(assert (forall ((?v0 S2)) (let ((?v_0 (f10 f12 (f13 f14 (f15 f16 (f15 f17 f18)))))) (let ((?v_1 (f9 ?v_0 ?v0))) (= (f3 f25 ?v0) (f5 (f6 f7 (f3 f8 ?v_1)) (f3 (f20 f21 (f3 f22 (f9 ?v_0 f23))) (f9 (f10 f12 f24) ?v_1))))))))
(assert (forall ((?v0 S2)) (= (f3 f26 ?v0) (f5 (f6 f7 (f3 f8 (f9 (f10 f12 (f13 f14 (f15 f16 (f15 f17 f18)))) ?v0))) (f3 (f20 f21 (f3 f22 f23)) (f9 (f10 f12 (f9 (f10 f27 f24) f23)) ?v0))))))
(assert (forall ((?v0 S2)) (= (f3 f28 ?v0) (f5 (f6 f7 (f3 f8 (f9 (f10 f12 (f13 f14 (f15 f16 (f15 f17 f18)))) ?v0))) (f3 (f20 f21 (f3 f22 f23)) (f9 (f10 f12 f24) ?v0))))))
(assert (forall ((?v0 S2)) (let ((?v_0 (f10 f12 (f13 f14 (f15 f16 (f15 f17 f18)))))) (let ((?v_1 (f9 ?v_0 ?v0))) (= (f3 f29 ?v0) (f5 (f6 f7 (f3 f8 (f9 f30 ?v_1))) (f3 (f20 f21 (f3 f22 (f9 ?v_0 f23))) (f9 (f10 f11 f24) (f9 (f10 f12 f24) ?v_1)))))))))
(assert (forall ((?v0 S2)) (= (f3 f31 ?v0) (f5 (f6 f7 (f3 f8 (f9 f30 (f9 (f10 f12 (f13 f14 (f15 f16 (f15 f17 f18)))) ?v0)))) (f3 (f20 f21 (f3 f22 f23)) (f9 (f10 f12 (f9 (f10 f27 f24) f23)) ?v0))))))
(assert (forall ((?v0 S2)) (= (f3 f32 ?v0) (f5 (f6 f7 (f3 f8 ?v0)) (f3 (f20 f21 (f3 f22 (f9 (f10 f12 (f13 f14 (f15 f16 (f15 f17 f18)))) f23))) (f9 (f10 f12 f24) ?v0))))))
(assert (forall ((?v0 S4) (?v1 S4) (?v2 S2) (?v3 S2)) (let ((?v_0 (f20 f21 ?v0))) (= (f3 (f33 (f34 (f35 f36 ?v0) ?v1) ?v2) ?v3) (f5 (f6 f37 (f5 (f6 f38 (f3 (f20 f21 (f5 (f6 f39 ?v0) ?v1)) (f9 (f10 f27 ?v2) ?v3))) (f3 ?v_0 ?v3))) (f3 ?v_0 ?v2))))))
(assert (forall ((?v0 S10) (?v1 S10) (?v2 S2) (?v3 S2)) (let ((?v_0 (f48 f49 ?v0))) (= (f40 (f41 (f42 (f43 f44 ?v0) ?v1) ?v2) ?v3) (f15 (f45 f46 (f15 (f45 f47 (f40 (f48 f49 (f15 (f45 f50 ?v0) ?v1)) (f9 (f10 f27 ?v2) ?v3))) (f40 ?v_0 ?v3))) (f40 ?v_0 ?v2))))))
(assert (forall ((?v0 S4) (?v1 S4) (?v2 S2) (?v3 S2)) (= (f3 (f33 (f34 (f35 f51 ?v0) ?v1) ?v2) ?v3) (f5 (f6 f38 (f3 (f20 f21 ?v0) (f9 (f10 f27 ?v2) ?v3))) (f3 (f20 f21 ?v1) ?v3)))))
(assert (forall ((?v0 S2) (?v1 S2) (?v2 S2) (?v3 S2)) (= (f9 (f10 (f52 (f53 f54 ?v0) ?v1) ?v2) ?v3) (f9 (f10 f12 (f9 (f10 f55 ?v0) (f9 (f10 f27 ?v2) ?v3))) (f9 (f10 f55 ?v1) ?v3)))))
(assert (forall ((?v0 S10) (?v1 S10) (?v2 S2) (?v3 S2)) (= (f40 (f41 (f42 (f43 f56 ?v0) ?v1) ?v2) ?v3) (f15 (f45 f47 (f40 (f48 f49 ?v0) (f9 (f10 f27 ?v2) ?v3))) (f40 (f48 f49 ?v1) ?v3)))))
(assert (forall ((?v0 S4) (?v1 S4) (?v2 S2) (?v3 S2)) (let ((?v_0 (f20 f21 ?v0)) (?v_1 (f9 (f10 f27 ?v2) ?v3))) (= (f3 (f33 (f34 (f35 f57 ?v0) ?v1) ?v2) ?v3) (f5 (f6 f38 (f3 ?v_0 ?v3)) (f5 (f6 f37 (f3 (f20 f21 (f5 (f6 f39 ?v0) ?v1)) ?v_1)) (f3 ?v_0 ?v_1)))))))
(assert (forall ((?v0 S10) (?v1 S10) (?v2 S2) (?v3 S2)) (let ((?v_0 (f48 f49 ?v0)) (?v_1 (f9 (f10 f27 ?v2) ?v3))) (= (f40 (f41 (f42 (f43 f58 ?v0) ?v1) ?v2) ?v3) (f15 (f45 f47 (f40 ?v_0 ?v3)) (f15 (f45 f46 (f40 (f48 f49 (f15 (f45 f50 ?v0) ?v1)) ?v_1)) (f40 ?v_0 ?v_1)))))))
(assert (forall ((?v0 S4) (?v1 S4) (?v2 S2) (?v3 S2)) (= (f3 (f33 (f34 (f35 f59 ?v0) ?v1) ?v2) ?v3) (f5 (f6 f38 (f3 (f20 f21 ?v0) ?v3)) (f3 (f20 f21 ?v1) (f9 (f10 f27 (f9 f30 ?v2)) ?v3))))))
(assert (forall ((?v0 S2) (?v1 S2) (?v2 S2) (?v3 S2)) (= (f9 (f10 (f52 (f53 f60 ?v0) ?v1) ?v2) ?v3) (f9 (f10 f12 (f9 (f10 f55 ?v0) ?v3)) (f9 (f10 f55 ?v1) (f9 (f10 f27 (f9 f30 ?v2)) ?v3))))))
(assert (forall ((?v0 S10) (?v1 S10) (?v2 S2) (?v3 S2)) (= (f40 (f41 (f42 (f43 f61 ?v0) ?v1) ?v2) ?v3) (f15 (f45 f47 (f40 (f48 f49 ?v0) ?v3)) (f40 (f48 f49 ?v1) (f9 (f10 f27 (f9 f30 ?v2)) ?v3))))))
(assert (forall ((?v0 S4) (?v1 S4) (?v2 S2) (?v3 S2)) (= (f3 (f33 (f34 (f35 f62 ?v0) ?v1) ?v2) ?v3) (f5 (f6 f38 (f3 (f20 f21 ?v0) ?v3)) (f3 (f20 f21 ?v1) (f9 (f10 f27 ?v2) ?v3))))))
(assert (forall ((?v0 S2) (?v1 S2) (?v2 S2) (?v3 S2)) (= (f9 (f10 (f52 (f53 f63 ?v0) ?v1) ?v2) ?v3) (f9 (f10 f12 (f9 (f10 f55 ?v0) ?v3)) (f9 (f10 f55 ?v1) (f9 (f10 f27 ?v2) ?v3))))))
(assert (forall ((?v0 S10) (?v1 S10) (?v2 S2) (?v3 S2)) (= (f40 (f41 (f42 (f43 f64 ?v0) ?v1) ?v2) ?v3) (f15 (f45 f47 (f40 (f48 f49 ?v0) ?v3)) (f40 (f48 f49 ?v1) (f9 (f10 f27 ?v2) ?v3))))))
(assert (forall ((?v0 S4) (?v1 S2) (?v2 S4) (?v3 S2)) (= (f3 (f20 (f65 (f66 f67 ?v0) ?v1) ?v2) ?v3) (f5 (f6 f38 (f3 (f20 f21 ?v0) ?v3)) (f3 (f20 f21 ?v2) (f9 (f10 f27 ?v1) ?v3))))))
(assert (forall ((?v0 S10) (?v1 S2) (?v2 S10) (?v3 S2)) (= (f40 (f48 (f68 (f69 f70 ?v0) ?v1) ?v2) ?v3) (f15 (f45 f47 (f40 (f48 f49 ?v0) ?v3)) (f40 (f48 f49 ?v2) (f9 (f10 f27 ?v1) ?v3))))))
(assert (let ((?v_0 (f74 f75 f23))) (not (= (f5 (f6 f39 (f71 (f72 f73 f28) ?v_0)) (f71 (f72 f73 f29) ?v_0)) (f5 (f6 f37 (f71 (f72 f73 f26) ?v_0)) (f5 (f6 f38 (f3 (f20 f21 (f5 (f6 f7 f76) (f3 f22 (f9 (f10 f12 (f13 f14 (f15 f16 (f15 f17 f18)))) f23)))) (f9 (f10 f27 f24) f23))) (f71 (f72 f73 f31) ?v_0)))))))
(assert (= (f77 f75 f23) f1))
(assert (= (f78 f23 f24) f1))
(assert (= (f3 f22 f75) f76))
(assert (forall ((?v0 S2)) (= (f3 (f20 f21 (f3 f22 ?v0)) ?v0) f76)))
(assert (forall ((?v0 S2) (?v1 S2) (?v2 S2)) (let ((?v_0 (f10 f12 (f13 f14 (f15 f16 (f15 f17 f18))))) (?v_1 (f10 f12 ?v1))) (= (f3 (f20 f21 (f3 f22 (f9 ?v_0 ?v0))) (f9 ?v_1 (f9 ?v_0 ?v2))) (f3 (f20 f21 (f3 f22 ?v0)) (f9 ?v_1 ?v2))))))
(assert (let ((?v_0 (f74 f75 f23))) (= (f71 (f72 f73 f32) (f74 f75 (f9 (f10 f12 (f13 f14 (f15 f16 (f15 f17 f18)))) f23))) (f5 (f6 f39 (f71 (f72 f73 f25) ?v_0)) (f71 (f72 f73 f4) ?v_0)))))
(assert (forall ((?v0 S4) (?v1 S4)) (let ((?v_1 (f15 f16 (f15 f17 f18)))) (let ((?v_0 (f13 f14 ?v_1))) (= (f3 (f20 f21 (f5 (f6 f37 ?v0) ?v1)) ?v_0) (f5 (f6 f37 (f5 (f6 f39 (f3 (f20 f21 ?v0) ?v_0)) (f3 (f20 f21 ?v1) ?v_0))) (f5 (f6 f38 (f5 (f6 f38 (f79 f80 ?v_1)) ?v0)) ?v1)))))))
(assert (forall ((?v0 S10) (?v1 S10)) (let ((?v_1 (f15 f16 (f15 f17 f18)))) (let ((?v_0 (f13 f14 ?v_1))) (= (f40 (f48 f49 (f15 (f45 f46 ?v0) ?v1)) ?v_0) (f15 (f45 f46 (f15 (f45 f50 (f40 (f48 f49 ?v0) ?v_0)) (f40 (f48 f49 ?v1) ?v_0))) (f15 (f45 f47 (f15 (f45 f47 (f15 f81 ?v_1)) ?v0)) ?v1)))))))
(assert (forall ((?v0 S4) (?v1 S2) (?v2 S4)) (let ((?v_0 (f9 f30 ?v1))) (= (f5 (f6 f37 (f3 (f20 f21 ?v0) ?v_0)) (f3 (f20 f21 ?v2) ?v_0)) (f5 (f6 f38 (f5 (f6 f37 ?v0) ?v2)) (f71 (f72 f73 (f20 (f65 (f66 f67 ?v0) ?v1) ?v2)) (f74 f75 ?v_0)))))))
(assert (forall ((?v0 S10) (?v1 S2) (?v2 S10)) (let ((?v_0 (f9 f30 ?v1))) (= (f15 (f45 f46 (f40 (f48 f49 ?v0) ?v_0)) (f40 (f48 f49 ?v2) ?v_0)) (f15 (f45 f47 (f15 (f45 f46 ?v0) ?v2)) (f82 (f83 f84 (f48 (f68 (f69 f70 ?v0) ?v1) ?v2)) (f74 f75 ?v_0)))))))
(assert (forall ((?v0 S4) (?v1 S4) (?v2 S2)) (let ((?v_0 (f74 f75 ?v2))) (= (f71 (f72 f73 (f33 (f34 (f35 f36 ?v0) ?v1) ?v2)) ?v_0) (f71 (f72 f73 (f33 (f34 (f35 f57 ?v0) ?v1) ?v2)) ?v_0)))))
(assert (forall ((?v0 S10) (?v1 S10) (?v2 S2)) (let ((?v_0 (f74 f75 ?v2))) (= (f82 (f83 f84 (f41 (f42 (f43 f44 ?v0) ?v1) ?v2)) ?v_0) (f82 (f83 f84 (f41 (f42 (f43 f58 ?v0) ?v1) ?v2)) ?v_0)))))
(assert (forall ((?v0 S2)) (let ((?v_0 (f13 f14 (f15 f16 (f15 f17 f18))))) (let ((?v_1 (f9 (f10 f12 ?v_0) ?v0))) (=> (not (= ?v0 f75)) (= (f9 f30 (f9 f30 (f9 (f10 f27 ?v_1) ?v_0))) ?v_1))))))
(assert (forall ((?v0 S2)) (let ((?v_0 (f15 f16 (f15 f17 f18)))) (let ((?v_1 (f9 (f10 f12 (f13 f14 (f15 f16 ?v_0))) ?v0))) (=> (not (= ?v0 f75)) (= (f9 f30 (f9 f30 (f9 (f10 f27 ?v_1) (f13 f14 ?v_0)))) ?v_1))))))
(assert (forall ((?v0 S2) (?v1 S2)) (let ((?v_1 (f13 f14 (f15 f16 (f15 f17 f18)))) (?v_0 (f10 f55 ?v0))) (= (f9 ?v_0 (f9 f30 (f9 (f10 f12 ?v_1) ?v1))) (f9 (f10 f12 ?v0) (f9 (f10 f55 (f9 ?v_0 ?v1)) ?v_1))))))
(assert (forall ((?v0 S4) (?v1 S2)) (let ((?v_1 (f13 f14 (f15 f16 (f15 f17 f18)))) (?v_0 (f20 f21 ?v0))) (= (f3 ?v_0 (f9 f30 (f9 (f10 f12 ?v_1) ?v1))) (f5 (f6 f38 ?v0) (f3 (f20 f21 (f3 ?v_0 ?v1)) ?v_1))))))
(assert (forall ((?v0 S10) (?v1 S2)) (let ((?v_1 (f13 f14 (f15 f16 (f15 f17 f18)))) (?v_0 (f48 f49 ?v0))) (= (f40 ?v_0 (f9 f30 (f9 (f10 f12 ?v_1) ?v1))) (f15 (f45 f47 ?v0) (f40 (f48 f49 (f40 ?v_0 ?v1)) ?v_1))))))
(assert (forall ((?v0 S2) (?v1 S2)) (let ((?v_0 (f10 f55 ?v0))) (let ((?v_1 (f9 ?v_0 ?v1))) (= (f9 ?v_0 (f9 f30 (f9 (f10 f12 (f13 f14 (f15 f16 (f15 f17 f18)))) ?v1))) (f9 (f10 f12 ?v0) (f9 (f10 f12 ?v_1) ?v_1)))))))
(assert (forall ((?v0 S4) (?v1 S2)) (let ((?v_0 (f20 f21 ?v0))) (let ((?v_1 (f3 ?v_0 ?v1))) (= (f3 ?v_0 (f9 f30 (f9 (f10 f12 (f13 f14 (f15 f16 (f15 f17 f18)))) ?v1))) (f5 (f6 f38 ?v0) (f5 (f6 f38 ?v_1) ?v_1)))))))
(assert (forall ((?v0 S10) (?v1 S2)) (let ((?v_0 (f48 f49 ?v0))) (let ((?v_1 (f40 ?v_0 ?v1))) (= (f40 ?v_0 (f9 f30 (f9 (f10 f12 (f13 f14 (f15 f16 (f15 f17 f18)))) ?v1))) (f15 (f45 f47 ?v0) (f15 (f45 f47 ?v_1) ?v_1)))))))
(assert (forall ((?v0 S2) (?v1 S2)) (let ((?v_0 (f13 f14 (f15 f16 (f15 f17 f18))))) (= (f9 (f10 f55 (f9 (f10 f11 ?v0) ?v1)) ?v_0) (f9 (f10 f11 (f9 (f10 f11 (f9 (f10 f55 ?v0) ?v_0)) (f9 (f10 f55 ?v1) ?v_0))) (f9 (f10 f12 (f9 (f10 f12 ?v_0) ?v0)) ?v1))))))
(assert (forall ((?v0 S4) (?v1 S4)) (let ((?v_1 (f15 f16 (f15 f17 f18)))) (let ((?v_0 (f13 f14 ?v_1))) (= (f3 (f20 f21 (f5 (f6 f39 ?v0) ?v1)) ?v_0) (f5 (f6 f39 (f5 (f6 f39 (f3 (f20 f21 ?v0) ?v_0)) (f3 (f20 f21 ?v1) ?v_0))) (f5 (f6 f38 (f5 (f6 f38 (f79 f80 ?v_1)) ?v0)) ?v1)))))))
(assert (forall ((?v0 S10) (?v1 S10)) (let ((?v_1 (f15 f16 (f15 f17 f18)))) (let ((?v_0 (f13 f14 ?v_1))) (= (f40 (f48 f49 (f15 (f45 f50 ?v0) ?v1)) ?v_0) (f15 (f45 f50 (f15 (f45 f50 (f40 (f48 f49 ?v0) ?v_0)) (f40 (f48 f49 ?v1) ?v_0))) (f15 (f45 f47 (f15 (f45 f47 (f15 f81 ?v_1)) ?v0)) ?v1)))))))
(assert (forall ((?v0 S2) (?v1 S2) (?v2 S2)) (let ((?v_0 (f74 f75 (f9 f30 ?v2)))) (= (f85 (f86 f87 (f10 (f52 (f53 f63 ?v0) ?v1) ?v2)) ?v_0) (f85 (f86 f87 (f10 (f52 (f53 f54 ?v0) ?v1) ?v2)) ?v_0)))))
(assert (forall ((?v0 S4) (?v1 S4) (?v2 S2)) (let ((?v_0 (f74 f75 (f9 f30 ?v2)))) (= (f71 (f72 f73 (f33 (f34 (f35 f62 ?v0) ?v1) ?v2)) ?v_0) (f71 (f72 f73 (f33 (f34 (f35 f51 ?v0) ?v1) ?v2)) ?v_0)))))
(assert (forall ((?v0 S10) (?v1 S10) (?v2 S2)) (let ((?v_0 (f74 f75 (f9 f30 ?v2)))) (= (f82 (f83 f84 (f41 (f42 (f43 f64 ?v0) ?v1) ?v2)) ?v_0) (f82 (f83 f84 (f41 (f42 (f43 f56 ?v0) ?v1) ?v2)) ?v_0)))))
(assert (forall ((?v0 S2) (?v1 S2) (?v2 S2)) (let ((?v_0 (f74 f75 (f9 f30 ?v2)))) (= (f85 (f86 f87 (f10 (f52 (f53 f60 ?v0) ?v1) ?v2)) ?v_0) (f9 (f10 f12 ?v1) (f85 (f86 f87 (f10 (f52 (f53 f63 ?v0) ?v1) ?v2)) ?v_0))))))
(assert (forall ((?v0 S4) (?v1 S4) (?v2 S2)) (let ((?v_0 (f74 f75 (f9 f30 ?v2)))) (= (f71 (f72 f73 (f33 (f34 (f35 f59 ?v0) ?v1) ?v2)) ?v_0) (f5 (f6 f38 ?v1) (f71 (f72 f73 (f33 (f34 (f35 f62 ?v0) ?v1) ?v2)) ?v_0))))))
(assert (forall ((?v0 S10) (?v1 S10) (?v2 S2)) (let ((?v_0 (f74 f75 (f9 f30 ?v2)))) (= (f82 (f83 f84 (f41 (f42 (f43 f61 ?v0) ?v1) ?v2)) ?v_0) (f15 (f45 f47 ?v1) (f82 (f83 f84 (f41 (f42 (f43 f64 ?v0) ?v1) ?v2)) ?v_0))))))
(assert (forall ((?v0 S4) (?v1 S2)) (let ((?v_0 (f20 f21 ?v0))) (=> (not (= ?v0 f76)) (= (f71 (f72 f73 ?v_0) (f74 f75 ?v1)) (f5 (f6 f7 (f5 (f6 f37 (f3 ?v_0 ?v1)) f76)) (f5 (f6 f37 ?v0) f76)))))))
(assert (forall ((?v0 S2) (?v1 S2) (?v2 S2)) (=> (= (f78 ?v0 ?v1) f1) (= (f88 (f74 ?v0 ?v2) (f74 ?v0 ?v1)) (f74 ?v1 ?v2)))))
(assert (forall ((?v0 S10) (?v1 S10) (?v2 S10)) (=> (= (f89 ?v0 ?v1) f1) (= (f90 (f91 ?v0 ?v2) (f91 ?v0 ?v1)) (f91 ?v1 ?v2)))))
(assert (forall ((?v0 S2) (?v1 S2) (?v2 S2) (?v3 S2)) (=> (= (f92 (f74 ?v0 ?v1) (f74 ?v2 ?v3)) f1) (or (= (f78 ?v1 ?v0) f1) (and (= (f78 ?v2 ?v0) f1) (= (f78 ?v1 ?v3) f1))))))
(assert (forall ((?v0 S10) (?v1 S10) (?v2 S10) (?v3 S10)) (=> (= (f93 (f91 ?v0 ?v1) (f91 ?v2 ?v3)) f1) (or (= (f89 ?v1 ?v0) f1) (and (= (f89 ?v2 ?v0) f1) (= (f89 ?v1 ?v3) f1))))))
(assert (forall ((?v0 S2)) (= (f9 (f10 f55 ?v0) f19) ?v0)))
(assert (forall ((?v0 S4)) (= (f3 (f20 f21 ?v0) f19) ?v0)))
(assert (forall ((?v0 S10)) (= (f40 (f48 f49 ?v0) f19) ?v0)))
(assert (forall ((?v0 S2) (?v1 S2) (?v2 S2) (?v3 S2)) (=> (= (f74 ?v0 ?v1) (f74 ?v2 ?v3)) (=> (= (f77 ?v0 ?v1) f1) (=> (= (f77 ?v2 ?v3) f1) (= ?v1 ?v3))))))
(assert (forall ((?v0 S10) (?v1 S10) (?v2 S10) (?v3 S10)) (=> (= (f91 ?v0 ?v1) (f91 ?v2 ?v3)) (=> (= (f94 ?v0 ?v1) f1) (=> (= (f94 ?v2 ?v3) f1) (= ?v1 ?v3))))))
(assert (forall ((?v0 S2) (?v1 S2) (?v2 S2) (?v3 S2)) (=> (= (f74 ?v0 ?v1) (f74 ?v2 ?v3)) (=> (= (f77 ?v0 ?v1) f1) (=> (= (f77 ?v2 ?v3) f1) (= ?v0 ?v2))))))
(assert (forall ((?v0 S10) (?v1 S10) (?v2 S10) (?v3 S10)) (=> (= (f91 ?v0 ?v1) (f91 ?v2 ?v3)) (=> (= (f94 ?v0 ?v1) f1) (=> (= (f94 ?v2 ?v3) f1) (= ?v0 ?v2))))))
(assert (forall ((?v0 S2) (?v1 S2) (?v2 S2) (?v3 S2)) (=> (= (f77 ?v0 ?v1) f1) (=> (= (f77 ?v2 ?v3) f1) (= (= (f74 ?v0 ?v1) (f74 ?v2 ?v3)) (and (= ?v0 ?v2) (= ?v1 ?v3)))))))
(assert (forall ((?v0 S10) (?v1 S10) (?v2 S10) (?v3 S10)) (=> (= (f94 ?v0 ?v1) f1) (=> (= (f94 ?v2 ?v3) f1) (= (= (f91 ?v0 ?v1) (f91 ?v2 ?v3)) (and (= ?v0 ?v2) (= ?v1 ?v3)))))))
(assert (forall ((?v0 S2) (?v1 S2)) (let ((?v_0 (f10 f55 ?v0))) (= (f9 ?v_0 ?v1) (ite (= ?v1 f75) f19 (f9 (f10 f12 ?v0) (f9 ?v_0 (f9 (f10 f27 ?v1) f19))))))))
(assert (forall ((?v0 S2)) (=> (= (f77 f75 ?v0) f1) (= ?v0 (f9 f30 (f9 (f10 f27 ?v0) f19))))))
(assert (forall ((?v0 S2)) (= (f9 f30 ?v0) (f9 (f10 f11 ?v0) f19))))
(assert (forall ((?v0 S2)) (= (f9 f30 ?v0) (f9 (f10 f11 f19) ?v0))))
(assert (forall ((?v0 S2) (?v1 S2)) (let ((?v_0 (f10 f27 ?v0))) (= (f9 ?v_0 (f9 f30 ?v1)) (f9 (f10 f27 (f9 ?v_0 f19)) ?v1)))))
(assert (forall ((?v0 S10)) (let ((?v_0 (f13 f14 ?v0))) (=> (= (f77 f75 ?v_0) f1) (= ?v_0 (f9 f30 (f9 (f10 f27 ?v_0) f19)))))))
(assert (forall ((?v0 S10) (?v1 S10)) (= (= (f94 f95 (f15 (f45 f50 (f15 (f45 f47 ?v0) ?v0)) (f15 (f45 f47 ?v1) ?v1))) f1) (or (not (= ?v0 f95)) (not (= ?v1 f95))))))
(assert (forall ((?v0 S10) (?v1 S10)) (not (= (f94 (f15 (f45 f50 (f15 (f45 f47 ?v0) ?v0)) (f15 (f45 f47 ?v1) ?v1)) f95) f1))))
(assert (forall ((?v0 S10) (?v1 S10)) (= (= (f89 (f15 (f45 f50 (f15 (f45 f47 ?v0) ?v0)) (f15 (f45 f47 ?v1) ?v1)) f95) f1) (and (= ?v0 f95) (= ?v1 f95)))))
(check-sat)
(exit)
